cpu-bind=MASK - n2lcn0129, task  0  0 [742307]: mask |--------|--------||--------|--------||-------B|BBB-----||--------|--------||||--------|--------||--------|--------||--------|--------||--------|--------|  set
started at Fri Mar 17 12:18:50 CET 2023
Timecheck 10015677.84529293
Set parameter TokenServer to value "license3.uni-paderborn.de"
Warning: Gurobi version mismatch between Python 10.0.1 and C library 10.0.0
Timecheck 10015677.860977568
Timecheck 10015677.861202216
Timecheck 10015677.861233288
Timecheck 10015677.861254256


####################################################################################################
Solve scenario sce_3_26_3 with free vessel operation using the arc flow model
Vessels can omit ports, Demands can be rejected
####################################################################################################
Data preprocessing, load /upb/departments/pc2/groups/hpc-prf-winf4/dwetzel/SILSRP/inst_final/sce_3_26_3
and create additional sets and parameters
	|- Read vessel information, number of vessels:	10
	|- Read node information, number of nodes:		373
	|- Read arc information
		|- Number of sailing arcs:			1531
		|- Number of transshipment arcs:	724
	|- Read container information
		|- Number of demands:		740
		|- Number of empties (+/-):	159/156
	|- Create additional sets and parameters

Data preprocessing took 	00:00:00.268
####################################################################################################
Create linear model
Set parameter Threads to value 4
	|- Create variables, took	00:00:00.300
	|- Create objective, took	00:00:00.262
	|- Create constraints, took	00:00:01.131
	|- Load heuristic start

Creating model took	00:00:01.732
####################################################################################################
Fix start solution

Set parameter TimeLimit to value 8.5972919889843091e+04
Gurobi Optimizer version 10.0.0 build v10.0.0rc2 (linux64)

CPU model: AMD EPYC 7763 64-Core Processor, instruction set [SSE2|AVX|AVX2]
Thread count: 128 physical cores, 128 logical processors, using up to 4 threads

Optimize a model with 24117 rows, 83492 columns and 306187 nonzeros
Model fingerprint: 0x63ac1c9d
Variable types: 67080 continuous, 16412 integer (16412 binary)
Coefficient statistics:
  Matrix range     [1e+00, 1e+06]
  Objective range  [1e+00, 1e+00]
  Bounds range     [1e+00, 2e+03]
  RHS range        [1e+00, 2e+08]
Found heuristic solution: objective 2.181088e+08
Presolve removed 21742 rows and 77567 columns
Presolve time: 0.19s
Presolved: 2375 rows, 5925 columns, 17109 nonzeros
Found heuristic solution: objective 4.894579e+07
Variable types: 5344 continuous, 581 integer (581 binary)

Root relaxation: objective 1.823613e+07, 788 iterations, 0.01 seconds (0.00 work units)

    Nodes    |    Current Node    |     Objective Bounds      |     Work
 Expl Unexpl |  Obj  Depth IntInf | Incumbent    BestBd   Gap | It/Node Time

*    0     0               0    1.823613e+07 1.8236e+07  0.00%     -    0s

Explored 1 nodes (788 simplex iterations) in 0.23 seconds (0.20 work units)
Thread count was 4 (of 128 available processors)

Solution count 3: 1.82361e+07 4.89458e+07 2.18109e+08 

Optimal solution found (tolerance 1.00e-04)
Best objective 1.823613100000e+07, best bound 1.823613100000e+07, gap 0.0000%

Fixing start solution took	00:00:01.997
####################################################################################################
####################################################################################################
Solve optimization model

Set parameter TimeLimit to value 85972.6825656537
Gurobi Optimizer version 10.0.0 build v10.0.0rc2 (linux64)

CPU model: AMD EPYC 7763 64-Core Processor, instruction set [SSE2|AVX|AVX2]
Thread count: 128 physical cores, 128 logical processors, using up to 4 threads

Optimize a model with 23768 rows, 83492 columns and 305838 nonzeros
Model fingerprint: 0xb7591c2d
Variable types: 67080 continuous, 16412 integer (16412 binary)
Coefficient statistics:
  Matrix range     [1e+00, 1e+06]
  Objective range  [1e+00, 1e+00]
  Bounds range     [1e+00, 2e+03]
  RHS range        [1e+00, 2e+08]

MIP start from previous solve produced solution with objective 1.82361e+07 (0.18s)
Loaded MIP start from previous solve with objective 1.82361e+07

Presolve removed 4440 rows and 7362 columns
Presolve time: 0.56s
Presolved: 19328 rows, 76130 columns, 225583 nonzeros
Variable types: 61297 continuous, 14833 integer (14833 binary)
Deterministic concurrent LP optimizer: primal and dual simplex
Showing first log only...


Root simplex log...

Iteration    Objective       Primal Inf.    Dual Inf.      Time
   37826    2.8255549e+07   0.000000e+00   1.616808e+08      5s
   62470    1.8735665e+07   0.000000e+00   3.837530e+07     10s
   81856    1.6499389e+07   0.000000e+00   2.276400e+07     15s
  100419    1.4941222e+07   0.000000e+00   2.554042e+08     20s
  119015    1.3713406e+07   0.000000e+00   8.586937e+06     25s
  136373    1.3203547e+07   0.000000e+00   3.936021e+06     30s
  153221    1.2934634e+07   0.000000e+00   5.780274e+06     35s
  168529    1.2816706e+07   0.000000e+00   5.428561e+05     40s
  182809    1.2760140e+07   0.000000e+00   1.062544e+06     45s
  196750    1.2729920e+07   0.000000e+00   1.859414e+05     50s
  206100    1.2710690e+07   0.000000e+00   3.556676e+05     55s
  213410    1.2703991e+07   0.000000e+00   7.005057e+03     60s
  214563    1.2703898e+07   0.000000e+00   0.000000e+00     61s
Concurrent spin time: 22.71s

Solved with primal simplex
  214563    1.2703898e+07   0.000000e+00   0.000000e+00     84s

Root relaxation: objective 1.270390e+07, 214563 iterations, 82.89 seconds (77.39 work units)

    Nodes    |    Current Node    |     Objective Bounds      |     Work
 Expl Unexpl |  Obj  Depth IntInf | Incumbent    BestBd   Gap | It/Node Time

     0     0 1.2704e+07    0 2669 1.8236e+07 1.2704e+07  30.3%     -   84s
     0     0 1.3491e+07    0 2618 1.8236e+07 1.3491e+07  26.0%     -  206s
     0     0 1.3550e+07    0 2634 1.8236e+07 1.3550e+07  25.7%     -  300s
     0     0 1.3555e+07    0 2659 1.8236e+07 1.3555e+07  25.7%     -  331s
     0     0 1.3555e+07    0 2692 1.8236e+07 1.3555e+07  25.7%     -  336s
     0     0 1.3555e+07    0 2669 1.8236e+07 1.3555e+07  25.7%     -  339s
     0     0 1.3555e+07    0 2667 1.8236e+07 1.3555e+07  25.7%     -  341s
     0     0 1.3814e+07    0 2597 1.8236e+07 1.3814e+07  24.3%     -  505s
     0     0 1.3954e+07    0 2753 1.8236e+07 1.3954e+07  23.5%     -  723s
     0     0 1.3954e+07    0 2730 1.8236e+07 1.3954e+07  23.5%     -  725s
     0     0 1.3984e+07    0 2666 1.8236e+07 1.3984e+07  23.3%     -  869s
     0     0 1.3984e+07    0 2669 1.8236e+07 1.3984e+07  23.3%     -  869s
     0     0 1.3992e+07    0 2630 1.8236e+07 1.3992e+07  23.3%     -  923s
     0     0 1.3994e+07    0 2680 1.8236e+07 1.3994e+07  23.3%     -  957s
     0     0 1.3994e+07    0 2710 1.8236e+07 1.3994e+07  23.3%     -  958s
     0     0 1.3995e+07    0 2709 1.8236e+07 1.3995e+07  23.3%     -  963s
     0     0 1.3995e+07    0 2714 1.8236e+07 1.3995e+07  23.3%     -  964s
     0     0 1.4158e+07    0 2851 1.8236e+07 1.4158e+07  22.4%     - 1428s
     0     0 1.4158e+07    0 2858 1.8236e+07 1.4158e+07  22.4%     - 1430s
     0     0 1.4275e+07    0 2731 1.8236e+07 1.4275e+07  21.7%     - 1980s
     0     0 1.4275e+07    0 2777 1.8236e+07 1.4275e+07  21.7%     - 1994s
     0     0 1.4314e+07    0 2792 1.8236e+07 1.4314e+07  21.5%     - 2418s
     0     0 1.4314e+07    0 2807 1.8236e+07 1.4314e+07  21.5%     - 2418s
     0     0 1.4325e+07    0 2845 1.8236e+07 1.4325e+07  21.4%     - 2827s
     0     0 1.4325e+07    0 2787 1.8236e+07 1.4325e+07  21.4%     - 2866s
     0     0 1.4329e+07    0 2823 1.8236e+07 1.4329e+07  21.4%     - 3139s
     0     0 1.4329e+07    0 2822 1.8236e+07 1.4329e+07  21.4%     - 3148s
     0     0 1.4330e+07    0 2827 1.8236e+07 1.4330e+07  21.4%     - 3346s
     0     0 1.4330e+07    0 2829 1.8236e+07 1.4330e+07  21.4%     - 3346s
     0     0 1.4331e+07    0 2832 1.8236e+07 1.4331e+07  21.4%     - 3402s
     0     0 1.4331e+07    0 2815 1.8236e+07 1.4331e+07  21.4%     - 3412s
     0     0 1.4331e+07    0 2838 1.8236e+07 1.4331e+07  21.4%     - 3465s
     0     0 1.4331e+07    0 2811 1.8236e+07 1.4331e+07  21.4%     - 3481s
H    0     0                    1.820859e+07 1.4439e+07  20.7%     - 3871s
     0     0 1.4439e+07    0 2844 1.8209e+07 1.4439e+07  20.7%     - 4194s
     0     0 1.4439e+07    0 2834 1.8209e+07 1.4439e+07  20.7%     - 4237s
     0     0 1.4486e+07    0 2729 1.8209e+07 1.4486e+07  20.4%     - 5202s
     0     0 1.4486e+07    0 2770 1.8209e+07 1.4486e+07  20.4%     - 5267s
     0     0 1.4503e+07    0 2727 1.8209e+07 1.4503e+07  20.3%     - 6068s
     0     0 1.4503e+07    0 2728 1.8209e+07 1.4503e+07  20.3%     - 6069s
     0     0 1.4507e+07    0 2731 1.8209e+07 1.4507e+07  20.3%     - 6228s
     0     0 1.4507e+07    0 2725 1.8209e+07 1.4507e+07  20.3%     - 6288s
     0     0 1.4509e+07    0 2778 1.8209e+07 1.4509e+07  20.3%     - 6541s
     0     0 1.4509e+07    0 2753 1.8209e+07 1.4509e+07  20.3%     - 6604s
     0     0 1.4509e+07    0 2829 1.8209e+07 1.4509e+07  20.3%     - 6795s
     0     0 1.4509e+07    0 2776 1.8209e+07 1.4509e+07  20.3%     - 6799s
     0     0 1.4510e+07    0 2748 1.8209e+07 1.4510e+07  20.3%     - 6833s
     0     0 1.4510e+07    0 2710 1.8209e+07 1.4510e+07  20.3%     - 6893s
     0     0 1.4557e+07    0 2719 1.8209e+07 1.4557e+07  20.1%     - 7375s
     0     0 1.4557e+07    0 2728 1.8209e+07 1.4557e+07  20.1%     - 7454s
     0     0 1.4575e+07    0 2702 1.8209e+07 1.4575e+07  20.0%     - 7874s
     0     0 1.4584e+07    0 2753 1.8209e+07 1.4584e+07  19.9%     - 8157s
     0     0 1.4584e+07    0 2714 1.8209e+07 1.4584e+07  19.9%     - 8185s
     0     0 1.4588e+07    0 2722 1.8209e+07 1.4588e+07  19.9%     - 8428s
     0     0 1.4589e+07    0 2789 1.8209e+07 1.4589e+07  19.9%     - 8475s
     0     0 1.4589e+07    0 2809 1.8209e+07 1.4589e+07  19.9%     - 8476s
     0     0 1.4590e+07    0 2756 1.8209e+07 1.4590e+07  19.9%     - 8519s
     0     0 1.4590e+07    0 2766 1.8209e+07 1.4590e+07  19.9%     - 8577s
H    0     0                    1.820075e+07 1.4590e+07  19.8%     - 8679s
     0     0 1.4590e+07    0 2684 1.8201e+07 1.4590e+07  19.8%     - 8785s
     0     0 1.4590e+07    0 2775 1.8201e+07 1.4590e+07  19.8%     - 8792s
     0     0 1.4626e+07    0 2731 1.8201e+07 1.4626e+07  19.6%     - 9128s
     0     0 1.4643e+07    0 2768 1.8201e+07 1.4643e+07  19.5%     - 9299s
     0     0 1.4643e+07    0 2702 1.8201e+07 1.4643e+07  19.5%     - 9373s
     0     0 1.4647e+07    0 2832 1.8201e+07 1.4647e+07  19.5%     - 9465s
     0     0 1.4647e+07    0 2759 1.8201e+07 1.4647e+07  19.5%     - 9513s
     0     0 1.4649e+07    0 2721 1.8201e+07 1.4649e+07  19.5%     - 9643s
     0     0 1.4649e+07    0 2795 1.8201e+07 1.4649e+07  19.5%     - 9708s
     0     0 1.4650e+07    0 2756 1.8201e+07 1.4650e+07  19.5%     - 9744s
     0     0 1.4650e+07    0 2691 1.8201e+07 1.4650e+07  19.5%     - 9828s
     0     0 1.4668e+07    0 2638 1.8201e+07 1.4668e+07  19.4%     - 10003s
     0     0 1.4668e+07    0 2650 1.8201e+07 1.4668e+07  19.4%     - 10004s
     0     0 1.4675e+07    0 2708 1.8201e+07 1.4675e+07  19.4%     - 10270s
     0     0 1.4675e+07    0 2630 1.8201e+07 1.4675e+07  19.4%     - 10317s
     0     0 1.4678e+07    0 2650 1.8201e+07 1.4678e+07  19.4%     - 10407s
     0     0 1.4678e+07    0 2639 1.8201e+07 1.4678e+07  19.4%     - 10488s
     0     0 1.4679e+07    0 2709 1.8201e+07 1.4679e+07  19.3%     - 10533s
     0     0 1.4679e+07    0 2692 1.8201e+07 1.4679e+07  19.3%     - 10536s
     0     0 1.4690e+07    0 2694 1.8201e+07 1.4690e+07  19.3%     - 10712s
     0     0 1.4695e+07    0 2747 1.8201e+07 1.4695e+07  19.3%     - 10805s
     0     0 1.4695e+07    0 2752 1.8201e+07 1.4695e+07  19.3%     - 10805s
     0     0 1.4696e+07    0 2788 1.8201e+07 1.4696e+07  19.3%     - 10855s
     0     0 1.4697e+07    0 2759 1.8201e+07 1.4697e+07  19.3%     - 10896s
     0     0 1.4697e+07    0 2741 1.8201e+07 1.4697e+07  19.3%     - 10898s
     0     0 1.4703e+07    0 2778 1.8201e+07 1.4703e+07  19.2%     - 11090s
     0     0 1.4706e+07    0 2749 1.8201e+07 1.4706e+07  19.2%     - 11181s
     0     0 1.4706e+07    0 2765 1.8201e+07 1.4706e+07  19.2%     - 11182s
     0     0 1.4707e+07    0 2679 1.8201e+07 1.4707e+07  19.2%     - 11237s
     0     0 1.4707e+07    0 2711 1.8201e+07 1.4707e+07  19.2%     - 11285s
     0     0 1.4712e+07    0 2737 1.8201e+07 1.4712e+07  19.2%     - 11520s
     0     0 1.4712e+07    0 2688 1.8201e+07 1.4712e+07  19.2%     - 11522s
     0     2 1.4712e+07    0 2682 1.8201e+07 1.4712e+07  19.2%     - 11859s
     1     4 1.4715e+07    1 2650 1.8201e+07 1.4712e+07  19.2% 20095 12098s
     3     8 1.4721e+07    2 2689 1.8201e+07 1.4715e+07  19.2% 51334 12377s
     7    12 1.4740e+07    3 2590 1.8201e+07 1.4721e+07  19.1% 62128 12615s
    11    16 1.4750e+07    3 2609 1.8201e+07 1.4727e+07  19.1% 72049 13120s
    15    20 1.4742e+07    4 2565 1.8201e+07 1.4736e+07  19.0% 71622 13164s
    19    24 1.4756e+07    5 2711 1.8201e+07 1.4736e+07  19.0% 65166 13221s
    23    29 1.4748e+07    5 2641 1.8201e+07 1.4736e+07  19.0% 59044 13284s
    25    29 1.4746e+07    6 2609 1.8201e+07 1.4736e+07  19.0% 57527 13285s
    28    33 1.4754e+07    6 2658 1.8201e+07 1.4736e+07  19.0% 52532 13347s
    32    39 1.4765e+07    6 2532 1.8201e+07 1.4736e+07  19.0% 48878 13405s
    38    45 1.4761e+07    7 2677 1.8201e+07 1.4736e+07  19.0% 43005 13475s
    44    51 1.4804e+07    7 2627 1.8201e+07 1.4736e+07  19.0% 39613 13541s
    50    55 1.4797e+07    8 2581 1.8201e+07 1.4736e+07  19.0% 37637 13762s
    54    61 1.4798e+07    9 2604 1.8201e+07 1.4736e+07  19.0% 37641 13815s
    60    65 1.4879e+07   12 2592 1.8201e+07 1.4736e+07  19.0% 38180 14655s
    64    73 1.4819e+07   12 2591 1.8201e+07 1.4736e+07  19.0% 42538 14786s
    72    81 1.4839e+07   15 2646 1.8201e+07 1.4736e+07  19.0% 39992 14871s
    80    85 1.4844e+07   16 2616 1.8201e+07 1.4736e+07  19.0% 38142 15280s
    84    94 1.4873e+07   16 2508 1.8201e+07 1.4736e+07  19.0% 39664 15377s
    93   102 1.4859e+07   17 2606 1.8201e+07 1.4736e+07  19.0% 36995 15718s
   101   113 1.4885e+07   19 2665 1.8201e+07 1.4736e+07  19.0% 35698 15861s
   112   128 1.4887e+07   22 2618 1.8201e+07 1.4736e+07  19.0% 33308 16444s
   127   133 1.4908e+07   27 2588 1.8201e+07 1.4736e+07  19.0% 31136 16677s
   132   143 1.4910e+07   29 2599 1.8201e+07 1.4736e+07  19.0% 31138 16837s
   142   149 1.4928e+07   31 2667 1.8201e+07 1.4736e+07  19.0% 30063 17012s
   148   159 1.4945e+07   32 2653 1.8201e+07 1.4736e+07  19.0% 29870 17186s
   158   163 1.5039e+07   33 2667 1.8201e+07 1.4736e+07  19.0% 29828 17711s
   162   179 1.5022e+07   33 2603 1.8201e+07 1.4736e+07  19.0% 30418 17909s
   164   179 1.5184e+07   23 2464 1.8201e+07 1.4736e+07  19.0% 30174 17910s
   178   193 1.5037e+07   35 2579 1.8201e+07 1.4736e+07  19.0% 28637 18124s
   192   207 1.5039e+07   36 2585 1.8201e+07 1.4736e+07  19.0% 27843 19877s
   206   220 1.5119e+07   40 2535 1.8201e+07 1.4736e+07  19.0% 27521 20309s
   219   241 1.5124e+07   41 2600 1.8201e+07 1.4736e+07  19.0% 27276 20581s
   240   265 1.5127e+07   45 2593 1.8201e+07 1.4736e+07  19.0% 25856 20870s
   264   286 1.5184e+07   49 2567 1.8201e+07 1.4736e+07  19.0% 24632 21153s
   285   304 1.5187e+07   51 2534 1.8201e+07 1.4736e+07  19.0% 23859 21425s
   303   330 1.5436e+07   54 2459 1.8201e+07 1.4736e+07  19.0% 23455 21743s
   329   361 1.5483e+07   57 2374 1.8201e+07 1.4736e+07  19.0% 22423 22037s
   360   391 1.5582e+07   64 2408 1.8201e+07 1.4736e+07  19.0% 21356 22635s
   390   415 1.6397e+07   69 2367 1.8201e+07 1.4736e+07  19.0% 20606 22949s
   402   415 1.5601e+07   61 2145 1.8201e+07 1.4736e+07  19.0% 20347 22950s
   414   454 1.6443e+07   72 2329 1.8201e+07 1.4736e+07  19.0% 20129 23303s
   453   494 1.6487e+07   87 2343 1.8201e+07 1.4736e+07  19.0% 19184 23654s
   493   528 1.6754e+07   95 2315 1.8201e+07 1.4736e+07  19.0% 18356 24048s
   527   564 1.6716e+07   99 2350 1.8201e+07 1.4736e+07  19.0% 17866 24432s
   563   577 1.6801e+07  109 2239 1.8201e+07 1.4736e+07  19.0% 17374 24783s
   576   611 1.6795e+07  111 2290 1.8201e+07 1.4736e+07  19.0% 17233 25247s
   610   653 1.6855e+07  119 2249 1.8201e+07 1.4736e+07  19.0% 16974 25666s
   654   683 1.8161e+07  125 2193 1.8201e+07 1.4736e+07  19.0% 16552 26089s
   685   727 1.7148e+07  126 2108 1.8201e+07 1.4736e+07  19.0% 16142 26846s
   729   771 1.7154e+07  134 2121 1.8201e+07 1.4736e+07  19.0% 15688 27345s
   773   801 1.7360e+07  141 2121 1.8201e+07 1.4736e+07  19.0% 15446 27747s
   803   852 1.7541e+07  147 1998 1.8201e+07 1.4736e+07  19.0% 15207 32757s
   854   917 1.7718e+07  162 1959 1.8201e+07 1.4736e+07  19.0% 14684 33330s
   919   935 1.7665e+07  178 1986 1.8201e+07 1.4736e+07  19.0% 14357 37117s
   937   974 1.7674e+07  178 1919 1.8201e+07 1.4736e+07  19.0% 14262 37532s
   976  1060 1.7690e+07  192 1910 1.8201e+07 1.4736e+07  19.0% 13887 38013s
H  998  1059                    1.800918e+07 1.4736e+07  18.2% 13727 38013s
  1062  1127 1.7773e+07  210 1883 1.8009e+07 1.4736e+07  18.2% 13339 38481s
H 1079  1127                    1.800241e+07 1.4736e+07  18.1% 13291 38481s
H 1099  1127                    1.798621e+07 1.4736e+07  18.1% 13194 38481s
H 1124  1127                    1.798534e+07 1.4736e+07  18.1% 13053 38481s
  1130  1218 1.7806e+07  218 1866 1.7985e+07 1.4736e+07  18.1% 13033 39212s
  1221  1339 1.7867e+07  231 1849 1.7985e+07 1.4736e+07  18.1% 12707 40043s
  1342  1494 1.7957e+07  267 1868 1.7985e+07 1.4736e+07  18.1% 12209 40750s
H 1502  1518                    1.798461e+07 1.4736e+07  18.1% 11509 41645s
H 1520  1518                    1.798263e+07 1.4736e+07  18.1% 11697 41645s
  1526  1621 1.4843e+07   11 2583 1.7983e+07 1.4736e+07  18.1% 11786 42306s
  1629  1778 1.4903e+07   19 2442 1.7983e+07 1.4736e+07  18.1% 12107 42687s
  1788  1980 1.4948e+07   25 2426 1.7983e+07 1.4736e+07  18.1% 11784 43063s
  1996  2006 1.5034e+07   38 2377 1.7983e+07 1.4736e+07  18.1% 11385 43498s
  2035  2104 1.5037e+07   43 2326 1.7983e+07 1.4736e+07  18.1% 11498 44640s
  2133  2214 1.5080e+07   51 2379 1.7983e+07 1.4736e+07  18.1% 11597 45623s
  2243  2326 1.5111e+07   68 2330 1.7983e+07 1.4736e+07  18.1% 11450 46618s
  2355  2494 1.5168e+07   81 2180 1.7983e+07 1.4736e+07  18.1% 11332 47586s
  2523  2498 1.5174e+07  106 2268 1.7983e+07 1.4736e+07  18.1% 10966 53784s
  2527  2502 1.5175e+07  107 2320 1.7983e+07 1.4736e+07  18.1% 10964 61739s
  2531  2661 1.5181e+07  108 2202 1.7983e+07 1.4736e+07  18.1% 10962 62873s
  2701  2827 1.5215e+07  134 2250 1.7983e+07 1.4736e+07  18.1% 10681 63989s
  2895  2914 1.5255e+07  162 2269 1.7983e+07 1.4736e+07  18.1% 10364 65143s
  2983  2915 1.6129e+07   91 2688 1.7983e+07 1.4736e+07  18.1% 10553 66546s
  2985  2916 1.7856e+07  225 2559 1.7983e+07 1.4736e+07  18.1% 10546 66646s
  2986  2917 1.6235e+07  545 2537 1.7983e+07 1.4736e+07  18.1% 10542 66824s
  2987  2918 1.7743e+07  419 2758 1.7983e+07 1.4736e+07  18.1% 10538 67092s
  2988  2918 1.5043e+07   51 2790 1.7983e+07 1.4736e+07  18.1% 10535 67377s
  2989  2919 1.5045e+07   21 2697 1.7983e+07 1.4736e+07  18.1% 10531 67752s
  2990  2920 1.6439e+07  166 2671 1.7983e+07 1.4736e+07  18.1% 10528 68028s
  2991  2920 1.6094e+07  397 2644 1.7983e+07 1.4736e+07  18.1% 10524 68255s
  2992  2921 1.5801e+07   69 2771 1.7983e+07 1.4736e+07  18.1% 10521 68481s
  2993  2922 1.7551e+07  282 2774 1.7983e+07 1.4736e+07  18.1% 10517 68696s
  2994  2922 1.6168e+07  494 2733 1.7983e+07 1.4736e+07  18.1% 10514 68891s
  2995  2923 1.6222e+07  118 2711 1.7983e+07 1.4736e+07  18.1% 10510 69083s
  2996  2924 1.7712e+07  403 2748 1.7983e+07 1.4736e+07  18.1% 10507 69233s
  2997  2924 1.5038e+07   47 2722 1.7983e+07 1.4736e+07  18.1% 10503 69339s
  2998  2925 1.5014e+07   15 2784 1.7983e+07 1.4736e+07  18.1% 10500 69418s
  2999  2926 1.5960e+07  234 2825 1.7983e+07 1.4736e+07  18.1% 10496 69469s
  3000  2926 1.7878e+07  854 2858 1.7983e+07 1.4736e+07  18.1% 10493 69534s
  3001  2927 1.6445e+07   73 2815 1.7983e+07 1.4736e+07  18.1% 10489 69580s
  3002  2928 1.6858e+07  644 2805 1.7983e+07 1.4736e+07  18.1% 10486 69616s
  3003  2928 1.7976e+07  282 2757 1.7983e+07 1.4736e+07  18.1% 10482 69635s
  3004  2929 1.5999e+07  307 2773 1.7983e+07 1.4736e+07  18.1% 10479 69654s
  3005  2930 1.6069e+07  350 2694 1.7983e+07 1.4736e+07  18.1% 10475 69853s
  3006  2930 1.5611e+07   66 2670 1.7983e+07 1.4737e+07  18.0% 10472 69940s
  3007  2931 1.5175e+07   22 2741 1.7983e+07 1.4739e+07  18.0% 10468 70001s
  3008  2932 1.5172e+07   66 2718 1.7983e+07 1.4739e+07  18.0% 10465 70031s
  3009  2932 1.6011e+07  284 2720 1.7983e+07 1.4740e+07  18.0% 10461 70051s
  3010  2933 1.6540e+07  120 2728 1.7983e+07 1.4740e+07  18.0% 10458 70072s
  3011  2934 1.5783e+07  151 2722 1.7983e+07 1.4740e+07  18.0% 10454 70093s
  3012  2934 1.7470e+07  288 2658 1.7983e+07 1.4743e+07  18.0% 10451 70217s
  3013  2935 1.7698e+07  315 2689 1.7983e+07 1.4745e+07  18.0% 10448 70287s
  3014  2936 1.5808e+07   71 2686 1.7983e+07 1.4745e+07  18.0% 10444 70330s
  3015  2936 1.5287e+07   81 2651 1.7983e+07 1.4746e+07  18.0% 10441 70380s
  3016  2937 1.7877e+07  849 2688 1.7983e+07 1.4746e+07  18.0% 10437 70409s
  3017  2938 1.5279e+07   68 2654 1.7983e+07 1.4749e+07  18.0% 10434 70516s
  3018  2938 1.5225e+07  138 2681 1.7983e+07 1.4750e+07  18.0% 10430 70557s
  3019  2939 1.5318e+07   89 2673 1.7983e+07 1.4750e+07  18.0% 10427 70588s
  3020  2940 1.5993e+07  301 2682 1.7983e+07 1.4750e+07  18.0% 10423 70607s
  3021  2940 1.7742e+07  797 2633 1.7983e+07 1.4752e+07  18.0% 10420 70665s
  3022  2941 1.6530e+07  590 2650 1.7983e+07 1.4754e+07  18.0% 10416 70719s
  3023  2942 1.5059e+07   55 2668 1.7983e+07 1.4756e+07  17.9% 10413 70759s
  3024  2942 1.7805e+07  218 2686 1.7983e+07 1.4756e+07  17.9% 10409 70781s
  3025  2943 1.5011e+07   36 2626 1.7983e+07 1.4756e+07  17.9% 10406 70794s
  3026  2944 1.5399e+07   86 2613 1.7983e+07 1.4757e+07  17.9% 10403 70809s
  3027  2944 1.7889e+07  866 2660 1.7983e+07 1.4757e+07  17.9% 10399 70848s
  3028  2945 1.5107e+07   65 2625 1.7983e+07 1.4758e+07  17.9% 10396 70881s
  3029  2946 1.4796e+07   13 2637 1.7983e+07 1.4759e+07  17.9% 10392 70912s
  3030  2946 1.6491e+07  171 2605 1.7983e+07 1.4759e+07  17.9% 10389 70932s
  3031  2947 1.5937e+07  228 2587 1.7983e+07 1.4760e+07  17.9% 10385 70977s
  3032  2948 1.5576e+07   60 2573 1.7983e+07 1.4760e+07  17.9% 10382 71002s
  3033  2948 1.5436e+07   32 2577 1.7983e+07 1.4761e+07  17.9% 10379 71021s
  3034  2949 1.7611e+07  286 2625 1.7983e+07 1.4761e+07  17.9% 10375 71034s
  3035  2950 1.5476e+07  171 2536 1.7983e+07 1.4762e+07  17.9% 10372 71087s
  3036  2950 1.7723e+07  326 2607 1.7983e+07 1.4763e+07  17.9% 10368 71111s
  3037  2951 1.5865e+07  186 2619 1.7983e+07 1.4763e+07  17.9% 10365 71134s
  3038  2952 1.6090e+07  154 2632 1.7983e+07 1.4765e+07  17.9% 10362 71186s
  3039  2952 1.5046e+07   48 2638 1.7983e+07 1.4765e+07  17.9% 10358 71200s
  3040  2953 1.6789e+07  229 2637 1.7983e+07 1.4765e+07  17.9% 10355 71221s
  3041  2954 1.4765e+07    7 2612 1.7983e+07 1.4765e+07  17.9% 10351 71255s
  3042  2954 1.6452e+07   76 2652 1.7983e+07 1.4765e+07  17.9% 10348 71274s
  3043  2955 1.4765e+07    7 2618 1.7983e+07 1.4765e+07  17.9% 10345 71295s
  3044  2956 1.4825e+07   10 2659 1.7983e+07 1.4765e+07  17.9% 10341 71318s
  3045  2956 1.5694e+07  130 2668 1.7983e+07 1.4766e+07  17.9% 10338 71359s
  3046  2957 1.6276e+07  121 2646 1.7983e+07 1.4766e+07  17.9% 10334 71374s
  3047  2958 1.5323e+07   32 2606 1.7983e+07 1.4766e+07  17.9% 10331 71390s
  3048  2958 1.5517e+07   95 2569 1.7983e+07 1.4767e+07  17.9% 10328 71433s
  3049  2959 1.5118e+07   32 2569 1.7983e+07 1.4767e+07  17.9% 10324 71502s
  3050  2960 1.7577e+07  156 2569 1.7983e+07 1.4767e+07  17.9% 10321 71726s
  3051  2963 1.4772e+07   10 2514 1.7983e+07 1.4767e+07  17.9% 10879 71896s
  3053  2967 1.4775e+07   11 2496 1.7983e+07 1.4771e+07  17.9% 10889 72344s
  3057  2969 1.4782e+07   12 2489 1.7983e+07 1.4775e+07  17.8% 10942 72614s
  3061  2972 1.4809e+07   12 2388 1.7983e+07 1.4776e+07  17.8% 11037 72869s
  3065  2975 1.4818e+07   13 2377 1.7983e+07 1.4782e+07  17.8% 11137 72928s
  3069  2977 1.4842e+07   13 2393 1.7983e+07 1.4782e+07  17.8% 11188 72981s
  3073  2980 1.4849e+07   14 2464 1.7983e+07 1.4782e+07  17.8% 11234 73054s
  3077  2984 1.4854e+07   14 2430 1.7983e+07 1.4782e+07  17.8% 11279 73437s
  3082  2987 1.4854e+07   15 2486 1.7983e+07 1.4782e+07  17.8% 11309 73614s
  3086  2986 1.4867e+07   16 2506 1.7983e+07 1.4782e+07  17.8% 11331 73615s
  3087  2989 1.4919e+07   15 2477 1.7983e+07 1.4782e+07  17.8% 11370 73944s
  3091  2992 1.4857e+07   16 2553 1.7983e+07 1.4782e+07  17.8% 11484 74250s
  3095  2998 1.4870e+07   16 2445 1.7983e+07 1.4782e+07  17.8% 11564 74353s
  3102  3001 1.4867e+07   17 2434 1.7983e+07 1.4782e+07  17.8% 11618 74837s
  3108  3008 1.4881e+07   17 2456 1.7983e+07 1.4782e+07  17.8% 11685 74939s
  3117  3012 1.4876e+07   18 2471 1.7983e+07 1.4782e+07  17.8% 11703 75120s
  3124  3020 1.4901e+07   19 2498 1.7983e+07 1.4782e+07  17.8% 11740 75290s
  3134  3028 1.4896e+07   20 2412 1.7983e+07 1.4782e+07  17.8% 11764 75455s
  3145  3034 1.4901e+07   21 2394 1.7983e+07 1.4782e+07  17.8% 11774 75703s
  3155  3040 1.4944e+07   23 2335 1.7983e+07 1.4782e+07  17.8% 11805 75874s
  3164  3047 1.4932e+07   24 2317 1.7983e+07 1.4782e+07  17.8% 11820 76036s
  3174  3057 1.4935e+07   25 2295 1.7983e+07 1.4782e+07  17.8% 11828 76248s
  3188  3064 1.5000e+07   27 2262 1.7983e+07 1.4782e+07  17.8% 11848 76431s
  3199  3073 1.4989e+07   28 2316 1.7983e+07 1.4782e+07  17.8% 11863 76627s
  3212  3081 1.5040e+07   30 2300 1.7983e+07 1.4782e+07  17.8% 11881 76898s
  3224  3090 1.4981e+07   32 2318 1.7983e+07 1.4782e+07  17.8% 11901 77086s
  3237  3099 1.5154e+07   33 2237 1.7983e+07 1.4782e+07  17.8% 11919 77344s
  3251  3107 1.4987e+07   35 2386 1.7983e+07 1.4782e+07  17.8% 11943 77549s
  3263  3117 1.5049e+07   36 2285 1.7983e+07 1.4782e+07  17.8% 11971 77799s
  3277  3128 1.5493e+07   38 2385 1.7983e+07 1.4782e+07  17.8% 12003 78065s
  3293  3139 1.5022e+07   40 2345 1.7983e+07 1.4782e+07  17.8% 12022 78354s
  3309  3150 1.5025e+07   42 2329 1.7983e+07 1.4782e+07  17.8% 12043 78647s
  3326  3162 1.5025e+07   44 2327 1.7983e+07 1.4782e+07  17.8% 12067 78908s
  3343  3172 1.5038e+07   45 2247 1.7983e+07 1.4782e+07  17.8% 12101 79244s
  3359  3182 1.5045e+07   47 2362 1.7983e+07 1.4782e+07  17.8% 12136 79911s
  3374  3194 1.5049e+07   50 2292 1.7983e+07 1.4782e+07  17.8% 12187 80399s
  3391  3207 1.5052e+07   52 2285 1.7983e+07 1.4782e+07  17.8% 12248 80775s
  3412  3218 1.5071e+07   54 2216 1.7983e+07 1.4782e+07  17.8% 12282 81389s
  3430  3230 1.5080e+07   57 2255 1.7983e+07 1.4782e+07  17.8% 12335 82143s
  3448  3251 1.5081e+07   58 2235 1.7983e+07 1.4782e+07  17.8% 12403 83281s
  3475  3264 1.5085e+07   60 2259 1.7983e+07 1.4782e+07  17.8% 12444 83714s
  3497  3279 1.5127e+07   63 2191 1.7983e+07 1.4782e+07  17.8% 12498 84137s
  3519  3294 1.5131e+07   66 2238 1.7983e+07 1.4782e+07  17.8% 12558 84638s
  3542  3320 1.5137e+07   70 2212 1.7983e+07 1.4782e+07  17.8% 12597 85167s
  3575  3341 1.5143e+07   74 2212 1.7983e+07 1.4782e+07  17.8% 12633 85749s
  3607  3350 1.5158e+07   79 2172 1.7983e+07 1.4782e+07  17.8% 12667 85972s

Cutting planes:
  Gomory: 1
  Cover: 7
  Implied bound: 266
  Projected implied bound: 66
  Clique: 6
  MIR: 477
  StrongCG: 1
  Flow cover: 3179
  Zero half: 1
  RLT: 168
  Relax-and-lift: 667

Explored 3627 nodes (48465324 simplex iterations) in 85973.10 seconds (113946.75 work units)
Thread count was 4 (of 128 available processors)

Solution count 5: 1.79826e+07 1.79826e+07 1.82007e+07 ... 1.82361e+07

Time limit reached
Best objective 1.798263199942e+07, best bound 1.478207255931e+07, gap 17.7981%

Solving took 	23:52:53.100
####################################################################################################
####################################################################################################
####################################################################################################
Reached timelimit, but could find a feasible solution
####################################################################################################
Description                          Value
----------------------------  ------------
Objective (min)               17,982,632.0
Cost sailing                  15,598,022.0
Cost port visits               7,340,063.0
Cost transshipment (demands)     812,512.0
Cost transshipment (empties)     155,054.0
Penalty delayed demands        2,146,568.0
Revenue Empties                8,175,327.0
Penalty rejected demands         105,740.0
Rejected demands (%)                  0.15
Omitted ports (%)                      5.8
Gap (%)                               17.8
####################################################################################################
Export solution
####################################################################################################
Overall time 	23:52:55.529

real	1432m57.437s
user	3279m25.088s
sys	0m54.034s
finished at Sat Mar 18 12:11:47 CET 2023
